;; Original file: adr_133.smt2
(set-logic HORN)
(declare-fun |repeat$unknown:2| (Int Int) Bool)
(declare-fun |succ$unknown:6| (Int Int) Bool)
(declare-fun |repeat$unknown:4| (Int Int) Bool)


(assert (forall ((|$knormal:3| Int)
         (|$alpha-3:n| Int)
         (|$knormal:1| Int)
         (|$V-reftype:6| Int)
         (|$alpha-2:f| Int))
  (let ((a!1 (and (= |$knormal:3| (- |$alpha-3:n| 1))
                  (= (not (= 0 |$knormal:1|)) (= |$alpha-3:n| 0))
                  (not (not (= 0 |$knormal:1|)))
                  true
                  (|repeat$unknown:2| |$V-reftype:6| |$alpha-2:f|)
                  true)))
    (=> a!1 (|repeat$unknown:2| |$V-reftype:6| |$alpha-2:f|)))))
(assert (forall ((|$V-reftype:13| Int) (succ Int))
  (=> (and (|succ$unknown:6| |$V-reftype:13| succ) true)
      (|repeat$unknown:2| |$V-reftype:13| succ))))
(assert (forall ((|$knormal:3| Int)
         (|$alpha-3:n| Int)
         (|$knormal:1| Int)
         (|$V-reftype:18| Int)
         (|$knormal:7| Int)
         (|$knormal:5| Int))
  (let ((a!1 (and (= |$knormal:3| (- |$alpha-3:n| 1))
                  (= (not (= 0 |$knormal:1|)) (= |$alpha-3:n| 0))
                  (= |$V-reftype:18| |$knormal:7|)
                  (not (not (= 0 |$knormal:1|)))
                  (|repeat$unknown:4| |$knormal:5| |$knormal:3|)
                  true
                  (|repeat$unknown:2| |$knormal:7| |$knormal:5|))))
    (=> a!1 (|repeat$unknown:4| |$V-reftype:18| |$alpha-3:n|)))))
(assert (forall ((|$knormal:3| Int)
         (|$alpha-3:n| Int)
         (|$knormal:1| Int)
         (|$knormal:5| Int))
  (let ((a!1 (and (= |$knormal:3| (- |$alpha-3:n| 1))
                  (= (not (= 0 |$knormal:1|)) (= |$alpha-3:n| 0))
                  (not (not (= 0 |$knormal:1|)))
                  (|repeat$unknown:4| |$knormal:5| |$knormal:3|)
                  true
                  (not true))))
    (=> a!1 true))))
(assert (forall ((|$knormal:1| Int)
         (|$alpha-3:n| Int)
         (|$V-reftype:16| Int))
  (let ((a!1 (and (= (not (= 0 |$knormal:1|)) (= |$alpha-3:n| 0))
                  (= |$V-reftype:16| 0)
                  (not (= 0 |$knormal:1|))
                  true)))
    (=> a!1 (|repeat$unknown:4| |$V-reftype:16| |$alpha-3:n|)))))
(assert (forall ((|$knormal:12| Int) (|$knormal:10| Int) (|$alpha-4:n| Int))
  (let ((a!1 (and (= (not (= 0 |$knormal:12|))
                     (= |$knormal:10| |$alpha-4:n|))
                  (not (not (= 0 |$knormal:12|)))
                  (|repeat$unknown:4| |$knormal:10| |$alpha-4:n|))))
    (=> a!1 false))))
(assert (forall ((|$V-reftype:14| Int) (|$alpha-1:x| Int))
  (=> (and (= |$V-reftype:14| (+ |$alpha-1:x| 1)) true)
      (|succ$unknown:6| |$V-reftype:14| |$alpha-1:x|))))
(check-sat)
